instance_name = "short_n0159_r015_139";
instance_group = "short";
rsi_start = 0;
rsi_end = 139;
rsi_min_distance = 15;
rsi_max_distance = 139;
num_nodes = 159;
num_neighbors = 493;
neighbors = [
[0, 95],
[0, 101],
[0, 112],
[1, 95],
[1, 103],
[2, 95],
[3, 101],
[4, 95],
[4, 101],
[5, 80],
[5, 82],
[6, 143],
[7, 143],
[8, 148],
[9, 80],
[9, 82],
[10, 80],
[10, 82],
[10, 116],
[10, 119],
[10, 120],
[10, 121],
[10, 124],
[11, 83],
[11, 90],
[11, 92],
[11, 95],
[11, 121],
[12, 121],
[13, 121],
[14, 80],
[14, 83],
[14, 90],
[14, 92],
[14, 121],
[15, 118],
[16, 121],
[17, 82],
[17, 116],
[17, 117],
[17, 118],
[17, 120],
[17, 121],
[18, 116],
[18, 118],
[18, 120],
[18, 121],
[18, 124],
[19, 86],
[19, 117],
[19, 118],
[19, 120],
[20, 143],
[21, 80],
[21, 83],
[21, 90],
[21, 91],
[21, 94],
[21, 95],
[21, 103],
[21, 121],
[22, 103],
[23, 80],
[23, 81],
[23, 97],
[24, 120],
[25, 121],
[26, 95],
[26, 103],
[27, 90],
[28, 80],
[28, 82],
[28, 119],
[28, 120],
[28, 121],
[29, 121],
[30, 121],
[31, 83],
[31, 116],
[31, 119],
[31, 120],
[31, 121],
[31, 124],
[32, 117],
[32, 118],
[32, 120],
[33, 120],
[33, 121],
[34, 82],
[34, 83],
[34, 92],
[34, 116],
[34, 119],
[34, 120],
[34, 121],
[34, 122],
[34, 123],
[34, 124],
[35, 120],
[36, 121],
[37, 145],
[38, 80],
[38, 119],
[38, 121],
[39, 80],
[39, 82],
[39, 83],
[39, 89],
[39, 92],
[39, 116],
[39, 119],
[39, 120],
[39, 121],
[39, 122],
[40, 83],
[40, 121],
[41, 145],
[42, 142],
[43, 95],
[43, 103],
[43, 121],
[44, 80],
[44, 143],
[45, 83],
[45, 95],
[45, 103],
[45, 121],
[46, 120],
[46, 121],
[47, 80],
[47, 93],
[47, 95],
[47, 103],
[48, 103],
[49, 145],
[50, 145],
[51, 145],
[52, 145],
[53, 132],
[53, 145],
[53, 149],
[53, 151],
[54, 145],
[55, 118],
[55, 133],
[55, 142],
[55, 145],
[56, 133],
[56, 141],
[56, 142],
[56, 143],
[56, 145],
[57, 145],
[58, 149],
[58, 151],
[59, 133],
[59, 141],
[59, 142],
[59, 143],
[59, 145],
[60, 145],
[61, 145],
[62, 145],
[63, 143],
[63, 145],
[64, 145],
[65, 138],
[66, 147],
[67, 147],
[68, 136],
[68, 137],
[69, 138],
[70, 147],
[71, 136],
[71, 137],
[71, 138],
[71, 139],
[72, 136],
[72, 138],
[72, 139],
[73, 136],
[73, 147],
[74, 80],
[74, 81],
[74, 82],
[74, 83],
[74, 90],
[74, 91],
[74, 92],
[74, 94],
[74, 116],
[74, 117],
[74, 119],
[74, 120],
[74, 121],
[74, 124],
[75, 83],
[75, 90],
[75, 95],
[75, 103],
[75, 121],
[76, 80],
[76, 90],
[76, 91],
[76, 94],
[76, 95],
[76, 103],
[76, 121],
[77, 121],
[77, 143],
[78, 127],
[78, 130],
[78, 132],
[78, 133],
[78, 143],
[78, 144],
[78, 145],
[78, 149],
[78, 151],
[79, 144],
[79, 147],
[79, 148],
[79, 151],
[80, 81],
[80, 82],
[80, 89],
[80, 91],
[80, 93],
[80, 94],
[80, 119],
[81, 82],
[81, 83],
[81, 89],
[81, 90],
[81, 91],
[81, 92],
[81, 94],
[81, 119],
[82, 83],
[82, 91],
[82, 92],
[82, 94],
[82, 116],
[82, 117],
[82, 118],
[82, 119],
[82, 120],
[82, 121],
[82, 122],
[82, 123],
[82, 124],
[83, 90],
[83, 91],
[83, 92],
[83, 94],
[83, 116],
[83, 119],
[83, 121],
[83, 122],
[84, 85],
[84, 86],
[84, 117],
[84, 118],
[84, 120],
[85, 86],
[86, 94],
[86, 113],
[86, 118],
[87, 88],
[87, 89],
[87, 91],
[87, 94],
[88, 89],
[88, 91],
[88, 94],
[89, 91],
[89, 92],
[89, 94],
[89, 119],
[90, 91],
[90, 92],
[90, 94],
[90, 95],
[90, 116],
[90, 121],
[91, 92],
[91, 94],
[91, 116],
[91, 119],
[91, 122],
[92, 116],
[92, 119],
[92, 121],
[92, 122],
[92, 124],
[93, 94],
[93, 95],
[93, 97],
[93, 98],
[93, 99],
[93, 100],
[93, 102],
[93, 103],
[93, 104],
[93, 105],
[93, 112],
[94, 95],
[94, 98],
[94, 103],
[94, 119],
[94, 143],
[95, 99],
[95, 100],
[95, 101],
[95, 103],
[95, 109],
[95, 121],
[96, 107],
[96, 108],
[96, 110],
[97, 98],
[97, 99],
[97, 100],
[97, 105],
[98, 99],
[98, 105],
[99, 100],
[99, 102],
[99, 103],
[99, 105],
[99, 106],
[100, 102],
[100, 103],
[100, 104],
[100, 105],
[100, 108],
[100, 109],
[100, 112],
[101, 102],
[101, 103],
[101, 104],
[101, 106],
[101, 107],
[101, 108],
[101, 109],
[101, 112],
[102, 103],
[102, 104],
[102, 105],
[102, 106],
[103, 104],
[103, 105],
[103, 106],
[103, 109],
[103, 112],
[104, 105],
[104, 106],
[104, 107],
[104, 108],
[104, 109],
[104, 110],
[104, 111],
[104, 112],
[105, 106],
[106, 109],
[107, 108],
[107, 109],
[107, 110],
[107, 111],
[107, 112],
[108, 109],
[108, 111],
[108, 112],
[109, 112],
[110, 111],
[110, 112],
[111, 112],
[113, 114],
[113, 115],
[113, 134],
[114, 115],
[114, 134],
[115, 133],
[116, 117],
[116, 118],
[116, 119],
[116, 120],
[116, 121],
[116, 122],
[116, 124],
[117, 118],
[117, 120],
[118, 120],
[118, 143],
[119, 120],
[119, 121],
[119, 122],
[119, 123],
[119, 124],
[120, 121],
[120, 124],
[121, 122],
[122, 123],
[122, 124],
[123, 124],
[125, 126],
[125, 127],
[125, 128],
[125, 130],
[125, 133],
[125, 135],
[125, 143],
[125, 144],
[125, 152],
[126, 127],
[126, 129],
[126, 131],
[126, 134],
[126, 148],
[126, 150],
[126, 152],
[127, 130],
[127, 131],
[127, 132],
[127, 144],
[127, 149],
[127, 152],
[128, 129],
[128, 130],
[128, 133],
[128, 135],
[128, 143],
[128, 144],
[128, 152],
[129, 134],
[129, 135],
[129, 152],
[130, 131],
[130, 132],
[130, 135],
[130, 144],
[130, 145],
[130, 149],
[130, 152],
[131, 132],
[131, 144],
[131, 150],
[131, 152],
[132, 135],
[132, 144],
[132, 149],
[132, 150],
[132, 151],
[133, 134],
[133, 135],
[133, 143],
[134, 135],
[135, 144],
[135, 149],
[135, 152],
[136, 137],
[136, 138],
[136, 139],
[136, 157],
[137, 138],
[137, 139],
[137, 157],
[138, 139],
[138, 153],
[138, 154],
[138, 156],
[138, 157],
[138, 158],
[139, 157],
[140, 143],
[141, 143],
[141, 145],
[142, 143],
[142, 145],
[143, 144],
[143, 145],
[144, 145],
[144, 148],
[144, 149],
[144, 150],
[144, 152],
[146, 147],
[146, 148],
[147, 148],
[148, 155],
[149, 150],
[149, 151],
[150, 151],
];
original_rsis = [31, 132, 115, 100, 14, 42, 118, 92, 129, 16, 62, 41, 46, 28, 101, 47, 52, 122, 18, 78, 114, 20, 71, 11, 78, 110, 7, 137, 7, 4, 49, 1, 50, 87, 50, 74, 41, 103, 5, 71, 115, 25, 38, 114, 130, 19, 122, 4, 130, 1, 96, 44, 34, 10, 4, 139, 38, 83, 32, 101, 94, 68, 92, 56, 21, 31, 66, 105, 1, 3, 127, 51, 137, 109, 70, 79, 60, 33, 25, 16, 40, 124, 111, 62, 50, 96, 137, 35, 110, 76, 81, 107, 118, 123, 82, 92, 98, 45, 15, 117, 94, 127, 14, 113, 80, 84, 98, 76, 122, 69, 118, 128, 104, 18, 55, 121, 57, 100, 61, 55, 139, 35, 120, 101, 110, 128, 8, 100, 24, 85, 113, 128, 44, 105, 34, 38, 42, 5, 99, 121, 36, 138, 74, 107, 43, 120, 95, 46, 94, 67, 66, 113, 26, 100, 10, 105, 36, 134, 48];
